{"lblp_lower": [1282.103004927558, 1351.1156863579804, 1416.0824648965265, 1423.8161698137494, 1430.6719271281272, 1444.9827512045788, 1450.185410334346, 1466.6000000000004], "cuttingPlaneBendInfo": [{"tot_cut_value": 0, "TOT_gen_cut": 0, "tot_time_opt": 0, "max_time_opt": 0}, {"tot_cut_value": 0, "TOT_gen_cut": 0, "tot_time_opt": 0, "max_time_opt": 0}, {"tot_cut_value": 0, "TOT_gen_cut": 0, "tot_time_opt": 0, "max_time_opt": 0}, {"tot_cut_value": 0, "TOT_gen_cut": 0, "tot_time_opt": 0, "max_time_opt": 0}, {"tot_cut_value": 0, "TOT_gen_cut": 0, "tot_time_opt": 0, "max_time_opt": 0}, {"tot_cut_value": 0, "TOT_gen_cut": 0, "tot_time_opt": 0, "max_time_opt": 0}, {"tot_cut_value": 0, "TOT_gen_cut": 0, "tot_time_opt": 0, "max_time_opt": 0}, {"tot_cut_value": 0, "TOT_gen_cut": 0, "tot_time_opt": 0, "max_time_opt": 0}], "time_compress": [0, 0, 0, 0, 0, 0, 0, 0], "ub_lp": [1665.3000000000006, 1590.6999999999998, 1523.3999999999996, 1509.8999999999994, 1496.2999999999995, 1492.8999999999996, 1468.7999999999995, 1466.5999999999997], "prob_sizes_at_start": [{"timeGraph": 127, "ngGraph": 102}, {"timeGraph": 162, "ngGraph": 150}, {"timeGraph": 197, "ngGraph": 169}, {"timeGraph": 218, "ngGraph": 173}, {"timeGraph": 231, "ngGraph": 173}, {"timeGraph": 264, "ngGraph": 174}, {"timeGraph": 286, "ngGraph": 174}, {"timeGraph": 291, "ngGraph": 174}], "prob_sizes_after_compress": [{"timeGraph": 36, "ngGraph": 86}, {"timeGraph": 57, "ngGraph": 85}, {"timeGraph": 72, "ngGraph": 79}, {"timeGraph": 84, "ngGraph": 67}, {"timeGraph": 91, "ngGraph": 67}, {"timeGraph": 134, "ngGraph": 68}, {"timeGraph": 126, "ngGraph": 62}, {"timeGraph": 109, "ngGraph": 55}], "prob_sizes_after_split": [{"timeGraph": 162, "ngGraph": 150}, {"timeGraph": 197, "ngGraph": 169}, {"timeGraph": 218, "ngGraph": 173}, {"timeGraph": 231, "ngGraph": 173}, {"timeGraph": 264, "ngGraph": 174}, {"timeGraph": 286, "ngGraph": 174}, {"timeGraph": 291, "ngGraph": 174}, {"timeGraph": 194, "ngGraph": 106}], "did_compress": [true, true, true, true, true, true, true, true], "lp_time_project": [1.3300549983978271, 0.45437002182006836, 0.4428718090057373, 0.2601351737976074, 0.31714892387390137, 0.37071990966796875, 0.22163605690002441, 0.2896456718444824], "lp_time_LB": [0.10992002487182617, 0.27454209327697754, 0.29926276206970215, 0.28792810440063477, 0.3328840732574463, 0.32888102531433105, 0.18488502502441406, 0.13219189643859863], "ilp_time": [], "history_of_graphs_by_iter": [], "ROOT_LP_PRIOR_ADDING_CUTS": 1466.6000000000004, "OUR_ilp_objective": 1466.6000000000004, "OUR_MIP_Lower_Bound": 1466.6000000000001, "OUR_ilp_time": 0.024868249893188477, "OUR_gurobi_MILP_str": "Gurobi Optimizer version 12.0.1 build v12.0.1rc0 (mac64[arm] - Darwin 24.5.0 24F74)\n\nCPU model: Apple M1\nThread count: 8 physical cores, 8 logical processors, using up to 8 threads\n\nNon-default parameters:\nTimeLimit  3000\n\nWLS license 2690165 - registered to Optym\nOptimize a model with 23185 rows, 7247 columns and 79871 nonzeros\nModel fingerprint: 0x03c8436d\nVariable types: 202 continuous, 7045 integer (6080 binary)\nCoefficient statistics:\n  Matrix range     [1e-01, 2e+02]\n  Objective range  [1e+00, 8e+01]\n  Bounds range     [1e-01, 2e+02]\n  RHS range        [2e-01, 2e+02]\nUsing branch priorities.\nPresolve removed 23146 rows and 7213 columns\nPresolve time: 0.02s\nPresolved: 39 rows, 34 columns, 145 nonzeros\nVariable types: 8 continuous, 26 integer (25 binary)\nFound heuristic solution: objective 1472.4000000\nFound heuristic solution: objective 1468.9000000\nFound heuristic solution: objective 1466.6000000\n\nRoot relaxation: cutoff, 15 iterations, 0.00 seconds (0.00 work units)\n\n    Nodes    |    Current Node    |     Objective Bounds      |     Work\n Expl Unexpl |  Obj  Depth IntInf | Incumbent    BestBd   Gap | It/Node Time\n\n     0     0     cutoff    0      1466.60000 1466.60000  0.00%     -    0s\n\nExplored 1 nodes (15 simplex iterations) in 0.02 seconds (0.03 work units)\nThread count was 8 (of 8 available processors)\n\nSolution count 3: 1466.6 1468.9 1472.4 \n\nOptimal solution found (tolerance 1.00e-04)\nBest objective 1.466600000000e+03, best bound 1.466600000000e+03, gap 0.0000%\n", "jy_opt": {"ParetoEps": 1e-05, "turn_off_time_windows": false, "deactivate_time_graph": false, "deactivate_demand_graph": false, "epsilon": 0.0001, "weight_slack_projector": 1e-05, "weight_compress": 0.01, "num_cust_use": 100, "dem_step_sz": 1, "time_step_sz": 1, "use_compression": 1, "max_iterations_loop_compress_project": 50, "do_round_dist_times": 1, "my_shift_bet_time_win": 0.0001, "num_terms_per_bin_init_construct": 100, "allOneBig_init": 0, "min_inc_2_compress": 1e-05, "save_graph_each_iter": 0, "use_Xpress": 0, "use_ineq": 1, "xpress_file_loc": "/Users/julian/Documents/FICO_Xpress_Config/xpauth.xpr", "run_baseline": 0, "verbose": 0, "use_NG_graph": 1, "num_NG": 9, "in_demo_mode": 0, "threshold_split": 0.1, "offset_cost_edge_project": 0, "use_classic_compress": 1, "use_classic_compress_last": 1, "num_thresh_split_projector": 1000, "lplb_solver": 4, "compresss_solver": 0, "proj_solver": 4, "use_julians_custom_lp_solver": 0, "do_ilp": 1, "roundingDiscretization_num_digits_keep": 3, "doExrtraRemovalEdgesLB": 0, "use_gurobi": 1, "max_ILP_time": 3000, "use_fancy_ng_graph": 1, "use_dem_graph": 0, "use_time_graph": 1, "num_multiplys_demand": 0, "DEBUG_ALLOW_DUMB_EDGES": 0, "add_all_ng_split_at_end": 0, "do_split_based_init": 0, "think_compress": [0], "use_delta_in_milp": 1, "use_delta_in_lp": 1, "turn_off_non_active_fg_project": 0, "use_new_valid_ineq": 0, "digit_mult_use": 10, "use_branch_on_g": true, "LAB_MP_ON": 0, "LAB_MP_neigh_use_power": 9, "LAB_MP_num_ineq_use": 10, "do_remove_actions_from_incumbant": true, "ub_use_remove": 1466.6, "use_packing_in_construction": 1, "maxVarsAdd_in_ITER": 10, "use_ng_size_init": 0, "do_presolve": 0, "use_diving_ineq": 1, "BEND_MIN_LP_OBJECTIVE_CUT": 0.1, "BEND_USE_RAND": 0, "BEND_MAX_SIZE_CHOOSE_K": 230, "BEND_VAL_STOP_ADDING_CUTS": 100000000, "BEND_MY_SIZES_USE": [9], "NUMERICAL_BEND_OFFSET_COST_CUT": 0.0001, "NUMERICAL_BEND_EPSILON_MULT_PARETO_OBJ": 0.001, "NO_PARETO_NUMERICAL_BEND_OFFSET_COST_CUT": 0, "NO_PARETO_BEND_VAL_STOP_ADDING_CUTS": 1, "NO_PARETO_EPSILON_MAX_VAL_CON": 0.01, "BENDERS_NEIGH_SZ_USE": 9, "Actions_of_given_sol": [], "all_vars_binary": 1, "restore_after_each_step": 1, "use_ng": 1, "compress_solver": 1, "DEBUG_NG_turn_off_CLEAN": false, "max_nodes_split": Infinity}, "output_ilp_solution": {"delta_capRem_0": 1.0, "delta_timeRem_0": 26.0, "delta_capRem_1": 2.5, "delta_timeRem_1": 39.0, "delta_capRem_2": 7.7, "delta_timeRem_2": 104.0, "delta_capRem_3": 1.9, "delta_timeRem_3": 71.8, "delta_capRem_4": 4.4, "delta_timeRem_4": 77.4, "delta_capRem_5": 0.3, "delta_timeRem_5": 121.0, "delta_capRem_6": 9.9, "delta_timeRem_6": 63.5, "delta_capRem_7": 8.9, "delta_timeRem_7": 125.0, "delta_capRem_8": 5.1, "delta_timeRem_8": 123.0, "delta_capRem_9": 4.3, "delta_timeRem_9": 106.0, "delta_capRem_10": 16.8, "delta_timeRem_10": 153.0, "delta_capRem_11": 1.9, "delta_timeRem_11": 25.0, "delta_capRem_12": 2.3, "delta_timeRem_12": 61.0, "delta_capRem_13": 18.0, "delta_timeRem_13": 188.0, "delta_capRem_14": 19.5, "delta_timeRem_14": 159.0, "delta_capRem_15": 9.0, "delta_timeRem_15": 152.3, "delta_capRem_16": 7.9, "delta_timeRem_16": 73.0, "delta_capRem_17": 20.0, "delta_timeRem_17": 143.0, "delta_capRem_18": 16.8, "delta_timeRem_18": 152.7, "delta_capRem_19": 3.7, "delta_timeRem_19": 99.7, "delta_capRem_20": 1.1, "delta_timeRem_20": 29.0, "delta_capRem_21": 19.1, "delta_timeRem_21": 133.0, "delta_capRem_22": 16.9, "delta_timeRem_22": 162.0, "delta_capRem_23": 2.8, "delta_timeRem_23": 67.0, "delta_capRem_24": 2.3, "delta_timeRem_24": 54.3, "delta_capRem_25": 1.7, "delta_timeRem_25": 22.0, "delta_capRem_26": 20.0, "delta_timeRem_26": 193.0, "delta_capRem_27": 20.0, "delta_timeRem_27": 191.0, "delta_capRem_28": 17.6, "delta_timeRem_28": 157.0, "delta_capRem_29": 20.0, "delta_timeRem_29": 159.0, "delta_capRem_30": 2.7, "delta_timeRem_30": 28.0, "delta_capRem_31": 2.8, "delta_timeRem_31": 79.0, "delta_capRem_32": 18.7, "delta_timeRem_32": 193.0, "delta_capRem_33": 16.4, "delta_timeRem_33": 107.1, "delta_capRem_34": 13.9, "delta_timeRem_34": 87.0, "delta_capRem_35": 20.0, "delta_timeRem_35": 188.6, "delta_capRem_36": 0.8, "delta_timeRem_36": 32.0, "delta_capRem_37": 4.8, "delta_timeRem_37": 137.0, "delta_capRem_38": 20.0, "delta_timeRem_38": 186.0, "delta_capRem_39": 20.0, "delta_timeRem_39": 145.0, "delta_capRem_40": 18.7, "delta_timeRem_40": 133.0, "delta_capRem_41": 20.0, "delta_timeRem_41": 189.0, "delta_capRem_42": 3.2, "delta_timeRem_42": 88.0, "delta_capRem_43": 6.6, "delta_timeRem_43": 161.0, "delta_capRem_44": 18.9, "delta_timeRem_44": 188.0, "delta_capRem_45": 8.0, "delta_timeRem_45": 103.0, "delta_capRem_46": 19.5, "delta_timeRem_46": 171.4, "delta_capRem_47": 15.1, "delta_timeRem_47": 94.6, "delta_capRem_48": 18.1, "delta_timeRem_48": 122.0, "delta_capRem_49": 20.0, "delta_timeRem_49": 213.1, "delta_capRem_50": 6.1, "delta_timeRem_50": 139.3, "delta_capRem_51": 0.9, "delta_timeRem_51": 22.0, "delta_capRem_52": 1.4, "delta_timeRem_52": 125.0, "delta_capRem_53": 4.6, "delta_timeRem_53": 87.0, "delta_capRem_54": 4.4, "delta_timeRem_54": 94.0, "delta_capRem_55": 2.5, "delta_timeRem_55": 90.0, "delta_capRem_56": 17.4, "delta_timeRem_56": 119.8, "delta_capRem_57": 1.8, "delta_timeRem_57": 20.0, "delta_capRem_58": 2.8, "delta_timeRem_58": 28.0, "delta_capRem_59": 1.8, "delta_timeRem_59": 63.0, "delta_capRem_60": 6.4, "delta_timeRem_60": 154.0, "delta_capRem_61": 20.0, "delta_timeRem_61": 172.0, "delta_capRem_62": 20.0, "delta_timeRem_62": 195.1, "delta_capRem_63": 19.0, "delta_timeRem_63": 157.0, "delta_capRem_64": 20.0, "delta_timeRem_64": 179.0, "delta_capRem_65": 3.5, "delta_timeRem_65": 93.0, "delta_capRem_66": 6.9, "delta_timeRem_66": 137.0, "delta_capRem_67": 6.4, "delta_timeRem_67": 78.0, "delta_capRem_68": 18.4, "delta_timeRem_68": 175.8, "delta_capRem_69": 0.5, "delta_timeRem_69": 38.0, "delta_capRem_70": 18.0, "delta_timeRem_70": 153.0, "delta_capRem_71": 3.6, "delta_timeRem_71": 57.9, "delta_capRem_72": 20.0, "delta_timeRem_72": 150.0, "delta_capRem_73": 4.4, "delta_timeRem_73": 71.0, "delta_capRem_74": 4.3, "delta_timeRem_74": 104.1, "delta_capRem_75": 18.4, "delta_timeRem_75": 157.0, "delta_capRem_76": 1.4, "delta_timeRem_76": 41.0, "delta_capRem_77": 16.7, "delta_timeRem_77": 134.0, "delta_capRem_78": 17.1, "delta_timeRem_78": 128.0, "delta_capRem_79": 2.5, "delta_timeRem_79": 41.3, "delta_capRem_80": 16.5, "delta_timeRem_80": 128.9, "delta_capRem_81": 11.5, "delta_timeRem_81": 79.3, "delta_capRem_82": 20.0, "delta_timeRem_82": 209.0, "delta_capRem_83": 5.1, "delta_timeRem_83": 129.0, "delta_capRem_84": 18.8, "delta_timeRem_84": 168.6, "delta_capRem_85": 7.1, "delta_timeRem_85": 128.7, "delta_capRem_86": 20.0, "delta_timeRem_86": 137.0, "delta_capRem_87": 17.8, "delta_timeRem_87": 153.8, "delta_capRem_88": 1.5, "delta_timeRem_88": 44.0, "delta_capRem_89": 4.6, "delta_timeRem_89": 125.0, "delta_capRem_90": 3.6, "delta_timeRem_90": 107.1, "delta_capRem_91": 20.0, "delta_timeRem_91": 211.7, "delta_capRem_92": 7.7, "delta_timeRem_92": 42.0, "delta_capRem_93": 5.5, "delta_timeRem_93": 163.6, "delta_capRem_94": 20.0, "delta_timeRem_94": 215.2, "delta_capRem_95": 2.3, "delta_timeRem_95": 149.6, "delta_capRem_96": 3.5, "delta_timeRem_96": 87.0, "delta_capRem_97": 19.8, "delta_timeRem_97": 198.6, "delta_capRem_98": 1.2, "delta_timeRem_98": 137.4, "delta_capRem_99": 2.5, "delta_timeRem_99": 45.0, "act_0_101": 1, "act_1_57": 1, "act_2_67": 1, "act_3_101": 1, "act_4_59": 1, "act_5_101": 1, "act_6_51": 1, "act_7_45": 1, "act_8_65": 1, "act_9_30": 1, "act_10_89": 1, "act_11_101": 1, "act_12_101": 1, "act_13_43": 1, "act_14_40": 1, "act_15_85": 1, "act_16_92": 1, "act_17_101": 1, "act_18_7": 1, "act_19_31": 1, "act_20_101": 1, "act_21_73": 1, "act_22_66": 1, "act_23_79": 1, "act_24_25": 1, "act_25_101": 1, "act_26_68": 1, "act_27_75": 1, "act_28_77": 1, "act_29_50": 1, "act_30_101": 1, "act_31_69": 1, "act_32_28": 1, "act_33_34": 1, "act_34_76": 1, "act_35_46": 1, "act_36_101": 1, "act_37_42": 1, "act_38_22": 1, "act_39_52": 1, "act_40_74": 1, "act_41_14": 1, "act_42_99": 1, "act_43_37": 1, "act_44_60": 1, "act_45_16": 1, "act_46_18": 1, "act_47_81": 1, "act_48_47": 1, "act_49_32": 1, "act_50_8": 1, "act_51_101": 1, "act_52_101": 1, "act_53_23": 1, "act_54_24": 1, "act_55_3": 1, "act_56_1": 1, "act_57_101": 1, "act_58_101": 1, "act_59_88": 1, "act_60_83": 1, "act_61_10": 1, "act_62_63": 1, "act_63_48": 1, "act_64_70": 1, "act_65_0": 1, "act_66_54": 1, "act_67_101": 1, "act_68_87": 1, "act_69_101": 1, "act_70_80": 1, "act_71_20": 1, "act_72_21": 1, "act_73_71": 1, "act_74_55": 1, "act_75_78": 1, "act_76_101": 1, "act_77_33": 1, "act_78_53": 1, "act_79_11": 1, "act_80_2": 1, "act_81_6": 1, "act_82_44": 1, "act_83_4": 1, "act_84_15": 1, "act_85_90": 1, "act_86_56": 1, "act_87_9": 1, "act_88_101": 1, "act_89_19": 1, "act_90_96": 1, "act_91_97": 1, "act_92_58": 1, "act_93_95": 1, "act_94_13": 1, "act_95_98": 1, "act_96_12": 1, "act_97_84": 1, "act_98_5": 1, "act_99_36": 1, "act_100_17": 1, "act_100_26": 1, "act_100_27": 1, "act_100_29": 1, "act_100_35": 1, "act_100_38": 1, "act_100_39": 1, "act_100_41": 1, "act_100_49": 1, "act_100_61": 1, "act_100_62": 1, "act_100_64": 1, "act_100_72": 1, "act_100_82": 1, "act_100_86": 1, "act_100_91": 1, "act_100_93": 1, "act_100_94": 1}, "Actions_of_given_sol": "none just used source and sink terms", "actions_used": ["act_0_101", "act_1_57", "act_2_67", "act_3_101", "act_4_59", "act_5_101", "act_6_51", "act_7_45", "act_8_65", "act_9_30", "act_10_89", "act_11_101", "act_12_101", "act_13_43", "act_14_40", "act_15_85", "act_16_92", "act_17_101", "act_18_7", "act_19_31", "act_20_101", "act_21_73", "act_22_66", "act_23_79", "act_24_25", "act_25_101", "act_26_68", "act_27_75", "act_28_77", "act_29_50", "act_30_101", "act_31_69", "act_32_28", "act_33_34", "act_34_76", "act_35_46", "act_36_101", "act_37_42", "act_38_22", "act_39_52", "act_40_74", "act_41_14", "act_42_99", "act_43_37", "act_44_60", "act_45_16", "act_46_18", "act_47_81", "act_48_47", "act_49_32", "act_50_8", "act_51_101", "act_52_101", "act_53_23", "act_54_24", "act_55_3", "act_56_1", "act_57_101", "act_58_101", "act_59_88", "act_60_83", "act_61_10", "act_62_63", "act_63_48", "act_64_70", "act_65_0", "act_66_54", "act_67_101", "act_68_87", "act_69_101", "act_70_80", "act_71_20", "act_72_21", "act_73_71", "act_74_55", "act_75_78", "act_76_101", "act_77_33", "act_78_53", "act_79_11", "act_80_2", "act_81_6", "act_82_44", "act_83_4", "act_84_15", "act_85_90", "act_86_56", "act_87_9", "act_88_101", "act_89_19", "act_90_96", "act_91_97", "act_92_58", "act_93_95", "act_94_13", "act_95_98", "act_96_12", "act_97_84", "act_98_5", "act_99_36", "act_100_17", "act_100_26", "act_100_27", "act_100_29", "act_100_35", "act_100_38", "act_100_39", "act_100_41", "act_100_49", "act_100_61", "act_100_62", "act_100_64", "act_100_72", "act_100_82", "act_100_86", "act_100_91", "act_100_93", "act_100_94"], "init_default_solution_is_empty": false, "objective_of_initial_sol": 4979.999999999998, "my_paths": "[[100, 17, 101], [100, 26, 68, 87, 9, 30, 101], [100, 27, 75, 78, 53, 23, 79, 11, 101], [100, 29, 50, 8, 65, 0, 101], [100, 35, 46, 18, 7, 45, 16, 92, 58, 101], [100, 38, 22, 66, 54, 24, 25, 101], [100, 39, 52, 101], [100, 41, 14, 40, 74, 55, 3, 101], [100, 49, 32, 28, 77, 33, 34, 76, 101], [100, 61, 10, 89, 19, 31, 69, 101], [100, 62, 63, 48, 47, 81, 6, 51, 101], [100, 64, 70, 80, 2, 67, 101], [100, 72, 21, 73, 71, 20, 101], [100, 82, 44, 60, 83, 4, 59, 88, 101], [100, 86, 56, 1, 57, 101], [100, 91, 97, 84, 15, 85, 90, 96, 12, 101], [100, 93, 95, 98, 5, 101], [100, 94, 13, 43, 37, 42, 99, 36, 101]]"}